cvc5/14593.corecstrs.readable_medium.smt2
(set-info :smt-lib-version 2.6)
(set-logic QF_SLIA)
(set-info :source |
Generated by: Andrew Reynolds
Generated on: 2018-04-25
Generator: Kudzu, converted to v2.6 by CVC4
Application: Symbolic Execution of Javascript
Target solver: Kaluza
Publications: "A symbolic execution framework for JavaScript" by P. Saxena, D. Akhawe, S. Hanna, F. Mao, S. McCamant, and D. Song, 2010.
|)
(set-info :license "https://creativecommons.org/licenses/by/4.0/")
(set-info :category "industrial")
(set-info :status unknown)



(declare-fun T_1 () Bool)
(declare-fun var_0xINPUT_130912 () String)
(declare-const rest_0_4412 String)
(declare-const rest_2_1113 String)
(declare-const rest_3_7296 String)
(assert (= T_1 (not (= "file:" var_0xINPUT_130912))))
(assert T_1)
(assert (= (str.split_at var_0xINPUT_130912 "-" 3) "3nkqn0ao"))
(assert (= (str.split_rest var_0xINPUT_130912 "-" 3) rest_0_4412))
(assert (= (str.split_rest var_0xINPUT_130912 "-" 3) "uh1fh17fxp5oi"))
(assert (= (str.split_rest var_0xINPUT_130912 "-" 1) rest_2_1113))
(assert (= (str.split_rest var_0xINPUT_130912 "-" 2) rest_3_7296))
(check-sat)

(exit)
(get-model)
